
50
127589

276519 4148
191857 2878
563171 8448
295851 4438
352515 5288
367514 5513
225988 3390
426312 6395
600036 9001
47997 720
373981 5610
176057 2641
437111 6557
415579 6234
30531 458
75329 1130
352249 5284
572438 8587
531773 7977
549239 8239
91395 1371
233721 3506
384647 5770
244321 3665
153792 2307
614702 9221
423512 6353
265386 3981
317384 4761
466376 6996
506174 7593
519707 7796
222988 3345
645101 9677
508707 7631
180390 2706
114660 1720
286785 4302
173724 2606
585037 8776
6266 94
545306 8180
107927 1619
541239 8119
288518 4328
87862 1318
656900 9854
279319 4190
652234 9784
214989 3225
